Version identifier: 22.1.0.0 | 2022-03-09 | 1a383f8ce
CPXPARAM_Threads                                 1
CPXPARAM_MIP_Strategy_VariableSelect             3
CPXPARAM_TimeLimit                               593.26495631700004
1 of 1 MIP starts provided solutions.
MIP start 'm1' defined initial solution with objective 281.0000.
Tried aggregator 2 times.
MIP Presolve eliminated 38 rows and 1 columns.
MIP Presolve added 36 rows and 9 columns.
MIP Presolve modified 46 coefficients.
Aggregator did 9 substitutions.
Reduced MIP has 1815 rows, 7800 columns, and 125454 nonzeros.
Reduced MIP has 7800 binaries, 0 generals, 0 SOSs, and 0 indicators.
Presolve time = 0.19 sec. (223.24 ticks)
Probing time = 0.03 sec. (24.29 ticks)
Tried aggregator 1 time.
Detecting symmetries...
MIP Presolve modified 12 coefficients.
Reduced MIP has 1815 rows, 7800 columns, and 125754 nonzeros.
Reduced MIP has 7800 binaries, 0 generals, 0 SOSs, and 0 indicators.
Presolve time = 0.14 sec. (171.00 ticks)
Probing time = 0.03 sec. (24.31 ticks)
Clique table members: 899.
MIP emphasis: balance optimality and feasibility.
MIP search method: dynamic search.
Parallel mode: none, using 1 thread.
Root relaxation solution time = 1.87 sec. (2269.75 ticks)

        Nodes                                         Cuts/
   Node  Left     Objective  IInf  Best Integer    Best Bound    ItCnt     Gap

*     0+    0                          281.0000    45150.0000              --- 
      0     0      300.0000  1123      281.0000      300.0000     4981    6.76%
      0     0      300.0000   378      281.0000      Cuts: 10    10534    6.76%
      0     0      300.0000   480      281.0000      Cuts: 78    15342    6.76%
      0     0      300.0000   426      281.0000       Cuts: 4    16072    6.76%
      0     0      300.0000   494      281.0000      Cuts: 51    21432    6.76%
Detecting symmetries...
      0     2      300.0000   358      281.0000      300.0000    21432    6.76%
Elapsed time = 76.60 sec. (89589.66 ticks, tree = 0.01 MB, solutions = 1)
      1     3      300.0000   751      281.0000      300.0000    34714    6.76%
      2     4      300.0000   479      281.0000      300.0000    41132    6.76%
      3     5      300.0000   513      281.0000      300.0000    48655    6.76%
      4     6      300.0000   710      281.0000      300.0000    49373    6.76%
      5     7      300.0000   911      281.0000      300.0000    56773    6.76%
      6     8      300.0000   769      281.0000      300.0000    58135    6.76%
      7     9      300.0000   564      281.0000      300.0000    65713    6.76%
      8    10      300.0000   894      281.0000      300.0000    73963    6.76%
      9    11      300.0000   560      281.0000      300.0000    75404    6.76%
     10    12      300.0000   798      281.0000      300.0000    85240    6.76%
Elapsed time = 103.56 sec. (119739.97 ticks, tree = 0.13 MB, solutions = 1)
     12    14      300.0000   564      281.0000      300.0000    92242    6.76%
     13    15      300.0000   835      281.0000      300.0000    99700    6.76%
     14    16      300.0000   786      281.0000      300.0000   107692    6.76%
     16    18      300.0000   829      281.0000      300.0000   117861    6.76%
     18    20      300.0000   811      281.0000      300.0000   120125    6.76%
     20    22      300.0000   632      281.0000      300.0000   122381    6.76%
     22    24      300.0000   574      281.0000      300.0000   126321    6.76%
     24    26      300.0000  1357      281.0000      300.0000   131630    6.76%
     26    28      300.0000  1230      281.0000      300.0000   136620    6.76%
     28    30      300.0000  1222      281.0000      300.0000   137700    6.76%
Elapsed time = 122.67 sec. (140980.16 ticks, tree = 0.42 MB, solutions = 1)
     30    32      300.0000  1180      281.0000      300.0000   138875    6.76%
     32    34      300.0000  1161      281.0000      300.0000   140826    6.76%
     33    35      300.0000  1174      281.0000      300.0000   142671    6.76%
     35    37      300.0000   909      281.0000      300.0000   144478    6.76%
     37    39      300.0000   884      281.0000      300.0000   146776    6.76%
     38    40      300.0000   834      281.0000      300.0000   150556    6.76%
     39    41      300.0000   828      281.0000      300.0000   150578    6.76%
     41    43      300.0000   891      281.0000      300.0000   153501    6.76%
     43    45      300.0000   846      281.0000      300.0000   157527    6.76%
     45    47      300.0000   873      281.0000      300.0000   159354    6.76%
Elapsed time = 133.93 sec. (153878.85 ticks, tree = 0.70 MB, solutions = 1)
     47    49      300.0000   876      281.0000      300.0000   161573    6.76%
     48    50      300.0000   847      281.0000      300.0000   161829    6.76%
     49    51      300.0000   713      281.0000      300.0000   167690    6.76%
     50    52      300.0000   716      281.0000      300.0000   168745    6.76%
     51    53      300.0000   845      281.0000      300.0000   175368    6.76%
     53    55      300.0000   795      281.0000      300.0000   176914    6.76%
     54    56      300.0000   800      281.0000      300.0000   178905    6.76%
     56    58      300.0000   847      281.0000      300.0000   187160    6.76%
     58    60      300.0000   755      281.0000      300.0000   191338    6.76%
     60    62      300.0000   821      281.0000      300.0000   199906    6.76%
Elapsed time = 150.00 sec. (170631.13 ticks, tree = 0.98 MB, solutions = 1)
     61    63      300.0000   791      281.0000      300.0000   206880    6.76%
     63    65      300.0000   759      281.0000      300.0000   208154    6.76%
     65    67      300.0000  1124      281.0000      300.0000   213634    6.76%
     66    68      300.0000   777      281.0000      300.0000   214176    6.76%
     68    70      300.0000   833      281.0000      300.0000   218825    6.76%
     70    72      300.0000   855      281.0000      300.0000   225916    6.76%
     72    74      300.0000   833      281.0000      300.0000   240542    6.76%
     75    77      300.0000   791      281.0000      300.0000   242492    6.76%
     77    79      300.0000   681      281.0000      300.0000   245071    6.76%
     78    80      300.0000   601      281.0000      300.0000   249375    6.76%
Elapsed time = 171.99 sec. (194077.77 ticks, tree = 1.30 MB, solutions = 1)
     80    82      300.0000   725      281.0000      300.0000   251570    6.76%
     82    84      300.0000   728      281.0000      300.0000   253818    6.76%
     84    86      300.0000   739      281.0000      300.0000   256915    6.76%
     85    87      300.0000   581      281.0000      300.0000   262868    6.76%
     86    88      300.0000   588      281.0000      300.0000   265322    6.76%
     88    90      300.0000   522      281.0000      300.0000   269012    6.76%
     90    92      300.0000   515      281.0000      300.0000   273043    6.76%
     92    94      300.0000   534      281.0000      300.0000   280975    6.76%
     94    96      300.0000   396      281.0000      300.0000   290132    6.76%
     95    97      300.0000   676      281.0000      300.0000   308007    6.76%
Elapsed time = 195.14 sec. (217677.22 ticks, tree = 1.58 MB, solutions = 1)
     96    98      300.0000   375      281.0000      300.0000   316480    6.76%
     97    99      300.0000   533      281.0000      300.0000   318627    6.76%
     99   101      300.0000   331      281.0000      300.0000   331013    6.76%
    100   102      300.0000   551      281.0000      300.0000   333346    6.76%
    101   103      300.0000   457      281.0000      300.0000   342092    6.76%
    103   105      300.0000   460      281.0000      300.0000   344893    6.76%
    104   106      300.0000   489      281.0000      300.0000   348435    6.76%
    105   106      299.5580   635      281.0000      300.0000   366246    6.76%
    107   108      300.0000   512      281.0000      300.0000   371125    6.76%
    109   109      299.0568   664      281.0000      300.0000   412411    6.76%
Elapsed time = 216.73 sec. (240011.11 ticks, tree = 1.81 MB, solutions = 1)
    111   110      299.3929   711      281.0000      300.0000   418624    6.76%
    113   112      300.0000   467      281.0000      300.0000   432669    6.76%
    115   114      300.0000   422      281.0000      300.0000   439767    6.76%
    116   115      300.0000   333      281.0000      300.0000   456200    6.76%
    117   116      300.0000   344      281.0000      300.0000   462754    6.76%
    118   117      300.0000   496      281.0000      300.0000   466677    6.76%
    119   117      299.3671   658      281.0000      300.0000   472114    6.76%
    121   119      300.0000   367      281.0000      300.0000   473603    6.76%
    123   121      300.0000   265      281.0000      300.0000   476921    6.76%
    124   121      299.4322   749      281.0000      300.0000   511780    6.76%
Elapsed time = 238.51 sec. (262817.57 ticks, tree = 2.02 MB, solutions = 1)
    125   122      300.0000   409      281.0000      300.0000   516567    6.76%
    127   123      298.7778   495      281.0000      300.0000   521125    6.76%
    128   124      300.0000   406      281.0000      300.0000   523971    6.76%
    130   126      300.0000   309      281.0000      300.0000   528133    6.76%
    131   127      300.0000   293      281.0000      300.0000   533983    6.76%
    132   127      299.2115   612      281.0000      300.0000   537950    6.76%
    134   128      299.3874   730      281.0000      300.0000   542891    6.76%
    136   129      299.4405   721      281.0000      300.0000   548371    6.76%
    138   130      299.3090   675      281.0000      300.0000   560370    6.76%
    140   131      299.0000   551      281.0000      300.0000   574146    6.76%
Elapsed time = 259.92 sec. (286350.97 ticks, tree = 2.20 MB, solutions = 1)
    141   132      300.0000   287      281.0000      300.0000   576908    6.76%
    142   132      299.4071   756      281.0000      300.0000   581105    6.76%
    143   133      300.0000   349      281.0000      300.0000   583965    6.76%
    144   134      300.0000   350      281.0000      300.0000   586703    6.76%
    146   135      299.3505   654      281.0000      300.0000   591779    6.76%
    147   136      300.0000   364      281.0000      300.0000   601836    6.76%
    148   137      300.0000   361      281.0000      300.0000   604378    6.76%
    149   137      299.4021   759      281.0000      300.0000   608718    6.76%
    150   138      300.0000   409      281.0000      300.0000   610766    6.76%
    158   144      300.0000   481      281.0000      300.0000   620012    6.76%
Elapsed time = 275.39 sec. (303960.36 ticks, tree = 2.38 MB, solutions = 1)
    164   146      299.0000   617      281.0000      300.0000   632342    6.76%
    170   150      299.0000   457      281.0000      300.0000   644174    6.76%
    177   155      299.4161   653      281.0000      300.0000   653406    6.76%
    182   157      298.0000   554      281.0000      300.0000   663088    6.76%
    190   165      299.0000   438      281.0000      300.0000   669606    6.76%
    197   170      299.0000   467      281.0000      300.0000   679032    6.76%
    203   173      298.0000   636      281.0000      300.0000   689873    6.76%
    210   180      299.0000   464      281.0000      300.0000   697397    6.76%
    217   184      299.0000   476      281.0000      300.0000   708525    6.76%
    220   186      298.0000   562      281.0000      300.0000   715415    6.76%
Elapsed time = 315.99 sec. (348758.18 ticks, tree = 3.13 MB, solutions = 1)
    227   192      299.0000   415      281.0000      300.0000   723518    6.76%
    234   199      299.0000   415      281.0000      300.0000   732565    6.76%
    240   203      299.0000   391      281.0000      300.0000   745126    6.76%
    247   207      299.0000   467      281.0000      300.0000   755895    6.76%
    254   212      299.0000   450      281.0000      300.0000   766143    6.76%
    261   216      298.3643   510      281.0000      300.0000   780385    6.76%
    269   221      298.0000   520      281.0000      300.0000   792092    6.76%
    276   225      299.0000   424      281.0000      300.0000   804127    6.76%
    280   228      298.0000   329      281.0000      300.0000   810321    6.76%
    291   239      298.0000   416      281.0000      300.0000   817608    6.76%
Elapsed time = 358.50 sec. (394076.58 ticks, tree = 4.06 MB, solutions = 1)
    299   245      298.0000   331      281.0000      300.0000   827931    6.76%
    307   251      298.0000   341      281.0000      300.0000   838117    6.76%
    317   258      297.0000   447      281.0000      300.0000   848589    6.76%
    320   261      297.0000   386      281.0000      300.0000   848984    6.76%
    330   270      297.0000   309      281.0000      300.0000   857560    6.76%
    339   276      296.4233   360      281.0000      300.0000   870100    6.76%
    350   283      297.0000   283      281.0000      300.0000   881946    6.76%
    364   289      296.0000   228      281.0000      300.0000   889750    6.76%
    376   297      296.0000   196      281.0000      300.0000   901445    6.76%
    387   302      294.2667   261      281.0000      300.0000   913602    6.76%
Elapsed time = 396.73 sec. (433628.93 ticks, tree = 5.19 MB, solutions = 1)
    400   312      295.0000   194      281.0000      300.0000   926323    6.76%
    417   320      292.0000   366      281.0000      300.0000   936644    6.76%
    432   327      300.0000   348      281.0000      300.0000   951311    6.76%
    436   331      300.0000   329      281.0000      300.0000   963056    6.76%
    441   334      299.3649   775      281.0000      300.0000   977114    6.76%
    446   338      300.0000   285      281.0000      300.0000   987103    6.76%
    452   341      299.1411   558      281.0000      300.0000  1002006    6.76%
    458   346      300.0000   395      281.0000      300.0000  1013395    6.76%
    462   348      299.3901   673      281.0000      300.0000  1022780    6.76%
    468   351      299.3883   654      281.0000      300.0000  1032740    6.76%
Elapsed time = 439.27 sec. (480190.00 ticks, tree = 6.05 MB, solutions = 1)
    473   355      300.0000   351      281.0000      300.0000  1043132    6.76%
    478   358      299.3601   634      281.0000      300.0000  1056164    6.76%
    480   359      300.0000   387      281.0000      300.0000  1060554    6.76%
    485   362      300.0000   376      281.0000      300.0000  1072556    6.76%
    490   366      300.0000   351      281.0000      300.0000  1084559    6.76%
    498   372      299.0000   466      281.0000      300.0000  1092673    6.76%
    503   375      298.0000   523      281.0000      300.0000  1101423    6.76%
    509   380      299.0000   413      281.0000      300.0000  1111043    6.76%
    513   382      298.0000   525      281.0000      300.0000  1120734    6.76%
    519   386      299.0000   434      281.0000      300.0000  1132230    6.76%
Elapsed time = 476.50 sec. (521799.68 ticks, tree = 6.66 MB, solutions = 1)
    521   387      299.0000   399      281.0000      300.0000  1136383    6.76%
    528   392      298.0000   512      281.0000      300.0000  1147978    6.76%
    534   396      297.0000   476      281.0000      300.0000  1159350    6.76%
    541   403      297.0000   348      281.0000      300.0000  1168859    6.76%
    545   405      296.5318   580      281.0000      300.0000  1183084    6.76%
    552   411      297.0000   322      281.0000      300.0000  1194071    6.76%
    558   414      296.5081   550      281.0000      300.0000  1207807    6.76%
    564   418      297.0000   441      281.0000      300.0000  1218222    6.76%
    571   422      296.6667   416      281.0000      300.0000  1230036    6.76%
    579   427      296.0000   524      281.0000      300.0000  1241274    6.76%
Elapsed time = 513.26 sec. (562475.67 ticks, tree = 7.39 MB, solutions = 1)
    588   435      296.0000   291      281.0000      300.0000  1251305    6.76%
    597   440      295.0000   391      281.0000      300.0000  1267497    6.76%
    602   443      296.0000   228      281.0000      300.0000  1275831    6.76%
    611   449      294.0000   345      281.0000      300.0000  1290520    6.76%
    624   460      294.0000   326      281.0000      300.0000  1300485    6.76%
    636   471      293.0000   318      281.0000      300.0000  1309296    6.76%
    647   480      293.0000   232      281.0000      300.0000  1319739    6.76%
    660   488      292.0000   278      281.0000      300.0000  1329710    6.76%
    673   492      300.0000   313      281.0000      300.0000  1341132    6.76%
    677   496      300.0000   395      281.0000      300.0000  1351095    6.76%
Elapsed time = 552.34 sec. (603016.47 ticks, tree = 8.59 MB, solutions = 1)
    681   498      299.4020   741      281.0000      300.0000  1362365    6.76%
    686   501      299.3953   600      281.0000      300.0000  1374666    6.76%
    690   504      299.0000   378      281.0000      300.0000  1384348    6.76%
    695   507      299.0714   520      281.0000      300.0000  1396115    6.76%
Starting limited solution polishing.
    701   511      300.0000   391      281.0000      300.0000  1406815    6.76%
    707   515      297.8333   561      281.0000      300.0000  1417306    6.76%
    712   518      300.0000   420      281.0000      300.0000  1428490    6.76%
    717   520      299.3833   616      281.0000      300.0000  1441785    6.76%
    723   524      300.0000   359      281.0000      300.0000  1452726    6.76%
    727   525      299.3628   581      281.0000      300.0000  1465805    6.76%
Elapsed time = 589.11 sec. (645321.42 ticks, tree = 9.13 MB, solutions = 1)
    731   527      299.3868   573      281.0000      300.0000  1474302    6.76%

Clique cuts applied:  40
Zero-half cuts applied:  10
Lift and project cuts applied:  2

Root node processing (before b&c):
  Real time             =   76.54 sec. (89530.72 ticks)
Sequential b&c:
  Real time             =  516.73 sec. (560473.82 ticks)
                          ------------
Total (root+branch&cut) =  593.27 sec. (650004.54 ticks)
Primal:	281
Dual:	300
Status:	Feasible
Time:	593.28
Sequence:
	12
	17
	13
	3
	0
	17
	11
	19
	0
	4
	1
	24
	21
	10
	15
	24
	21
	23
	2
	23
	5
	16
	15
	10
	5
	16
	6
	4
	18
	8
	13
	2
	20
	21
	24
	6
	4
	18
	19
	13
	15
	4
	18
	6
	20
	15
	4
	11
	2
	20
	1
	17
	21
	20
	15
	10
	1
	18
	6
	10
	15
	20
	21
	24
	22
	23
	2
	20
	22
	11
	22
	20
	2
	1
	10
	15
	7
	15
	10
	1
	0
	1
	23
	2
	23
	21
	8
	11
	19
	18
	7
	15
	11
	7
	0
	1
	8
	14
	8
	21
	24
	22
	20
	5
	16
	1
	10
	15
	24
	21
	24
	2
	20
	1
	17
	12
	6
	16
	5
	16
	5
	24
	6
	17
	13
	3
	18
	2
	23
	6
	18
	4
	13
	8
	21
	24
	21
	11
	22
	20
	6
	18
	1
	10
	15
	10
	1
	0
	3
	0
	3
	18
	19
	18
	19
	12
	8
	0
	19
	12
	8
	11
	7
	0
	3
	11
	17
	13
	2
	24
	5
	24
	21
	20
	15
	12
	3
	0
	19
	18
	19
	12
	8
	14
	3
	0
	19
	12
	8
	14
	15
	7
	13
	8
	12
	17
	6
	20
	2
	23
	5
	16
	21
	23
	15
	4
	0
	19
	11
	17
	18
	19
	13
	17
	0
	3
	13
	17
	5
	13
	15
	21
	24
	5
	20
	15
	10
	22
	23
	6
	17
	14
	8
	11
	7
	0
	3
	11
	17
	21
	16
	1
	4
	0
	3
	13
	17
	12
	19
	15
	14
	4
	15
	16
	21
	14
	8
	11
	4
	0
	19
	11
	17
	14
	8
	13
	4
	0
	3
	1
	16
	21
	4
	15
	3
	14
	2
	16
	1
	18
	4
